unsat
(:conflicts            1
 :max-generation       1
 :max-memory           24.79
 :memory               21.64
 :mk-bool-var          1025
 :mk-clause            40
 :mk-clause-binary     428
 :num-allocs           16619701
 :num-checks           1
 :quant-instantiations 45
 :rlimit-count         485304
 :time                 0.04)
